NAME 
ROWS
 N  OBJ
 L  R0      
 L  R1      
 L  R2      
 E  R3      
COLUMNS
    MARKER    'MARKER'                 'INTORG'
    I0(4)     OBJ       -322
    I0(4)     R0        -26
    I0(4)     R1        -496
    I0(4)     R2        -740
    I0(4)     R3        267
    I1(4)     OBJ       -73
    I1(4)     R0        -632
    I1(4)     R1        -778
    I1(4)     R2        -69
    I1(4)     R3        67
    I2(4)     OBJ       -404
    I2(4)     R0        -394
    I2(4)     R1        -927
    I2(4)     R2        -172
    I2(4)     R3        292
    I3(4)     OBJ       -195
    I3(4)     R0        -318
    I3(4)     R1        -169
    I3(4)     R2        -438
    I3(4)     R3        938
    I4(4)     OBJ       -922
    I4(4)     R0        -185
    I4(4)     R1        -523
    I4(4)     R2        -465
    I4(4)     R3        840
    I5(4)     OBJ       -809
    I5(4)     R0        -623
    I5(4)     R1        -46
    I5(4)     R2        -915
    I5(4)     R3        419
    I6(4)     OBJ       -737
    I6(4)     R0        -989
    I6(4)     R1        -168
    I6(4)     R2        -57
    I6(4)     R3        793
    I7(4)     OBJ       -677
    I7(4)     R0        -222
    I7(4)     R1        -36
    I7(4)     R2        -670
    I7(4)     R3        236
    I8(4)     OBJ       -851
    I8(4)     R0        -227
    I8(4)     R1        -785
    I8(4)     R2        -395
    I8(4)     R3        535
    I9(4)     OBJ       -17
    I9(4)     R0        -625
    I9(4)     R1        -40
    I9(4)     R2        -352
    I9(4)     R3        870
    I10(4)    OBJ       -483
    I10(4)    R0        -993
    I10(4)    R1        -380
    I10(4)    R2        -725
    I10(4)    R3        859
    I11(4)    OBJ       -872
    I11(4)    R0        -549
    I11(4)    R1        -811
    I11(4)    R2        -891
    I11(4)    R3        275
    I12(4)    OBJ       -673
    I12(4)    R0        -698
    I12(4)    R1        -671
    I12(4)    R2        -129
    I12(4)    R3        939
    I13(4)    OBJ       -746
    I13(4)    R0        -397
    I13(4)    R1        -774
    I13(4)    R2        -651
    I13(4)    R3        30
    I14(4)    OBJ       -120
    I14(4)    R0        -744
    I14(4)    R1        -128
    I14(4)    R2        -59
    I14(4)    R3        712
    I15(4)    OBJ       -1000
    I15(4)    R0        -619
    I15(4)    R1        -856
    I15(4)    R2        -652
    I15(4)    R3        404
    I16(4)    OBJ       -514
    I16(4)    R0        -205
    I16(4)    R1        -397
    I16(4)    R2        -697
    I16(4)    R3        944
    I17(4)    OBJ       -739
    I17(4)    R0        -480
    I17(4)    R1        -116
    I17(4)    R2        -227
    I17(4)    R3        768
    I18(4)    OBJ       -872
    I18(4)    R0        -296
    I18(4)    R1        -77
    I18(4)    R2        -687
    I18(4)    R3        73
    I19(4)    OBJ       -345
    I19(4)    R0        -56
    I19(4)    R1        -623
    I19(4)    R2        -482
    I19(4)    R3        338
    I20(1)    R3        1
    MARKER    'MARKER'                 'INTEND'
RHS
    RHS1      R0        -5063
    RHS1      R1        -6238
    RHS1      R2        -7004
    RHS1      R3        5299
BOUNDS
 UP BND1      I0(4)     1
 UP BND1      I1(4)     1
 UP BND1      I2(4)     1
 UP BND1      I3(4)     1
 UP BND1      I4(4)     1
 UP BND1      I5(4)     1
 UP BND1      I6(4)     1
 UP BND1      I7(4)     1
 UP BND1      I8(4)     1
 UP BND1      I9(4)     1
 UP BND1      I10(4)    1
 UP BND1      I11(4)    1
 UP BND1      I12(4)    1
 UP BND1      I13(4)    1
 UP BND1      I14(4)    1
 UP BND1      I15(4)    1
 UP BND1      I16(4)    1
 UP BND1      I17(4)    1
 UP BND1      I18(4)    1
 UP BND1      I19(4)    1
 LI BND1      I20(1)    0
ENDATA
